set VV := 0 1 2 3 4 5 ;
set VS := 0 1 2 3 4 5 6 7 8 9 10 11 12 13 14 15 16 ;
param cv := 
0 16
1 20
2 24
3 14
4 25
5 18
;
param cs := 
0 40
1 30
2 29
3 32
4 35
5 32
6 23
7 35
8 33
9 37
10 40
11 23
12 20
13 30
14 39
15 26
16 35
;
param bv:	 0 1 2 3 4 5 := 
		0 0 17 10 0 0 0 
		1 0 0 0 17 0 0 
		2 0 0 0 14 14 0 
		3 0 0 0 0 0 0 
		4 0 0 0 0 0 11 
		5 0 0 0 0 0 0 
;
param bs:	 0 1 2 3 4 5 6 7 8 9 10 11 12 13 14 15 16 := 
		0 0 0 0 0 0 0 0 24 0 0 0 0 0 0 0 0 0 
		1 0 0 37 0 0 26 0 0 0 0 0 0 0 25 0 0 0 
		2 0 37 0 0 0 0 0 0 0 37 0 39 0 0 25 0 0 
		3 0 0 0 0 0 0 0 0 21 0 0 0 0 0 0 35 0 
		4 0 0 0 0 0 0 0 28 0 0 0 0 0 0 0 0 31 
		5 0 26 0 0 0 0 38 0 0 24 0 0 0 0 35 0 0 
		6 0 0 0 0 0 38 0 0 0 0 0 0 0 39 0 0 0 
		7 24 0 0 0 28 0 0 0 37 27 0 0 0 0 0 0 0 
		8 0 0 0 21 0 0 0 37 0 0 0 0 0 0 0 0 0 
		9 0 0 37 0 0 24 0 27 0 0 0 0 23 0 0 0 0 
		10 0 0 0 0 0 0 0 0 0 0 0 0 0 0 0 0 33 
		11 0 0 39 0 0 0 0 0 0 0 0 0 0 0 0 0 0 
		12 0 0 0 0 0 0 0 0 0 23 0 0 0 0 0 0 0 
		13 0 25 0 0 0 0 39 0 0 0 0 0 0 0 0 0 0 
		14 0 0 25 0 0 35 0 0 0 0 0 0 0 0 0 0 0 
		15 0 0 0 35 0 0 0 0 0 0 0 0 0 0 0 0 0 
		16 0 0 0 0 31 0 0 0 0 0 33 0 0 0 0 0 0 
;
